
Gurobi 11.0.1 (win64) logging started Mon Apr  1 12:48:14 2024

Set parameter LogFile to value "C:\Projetos\Job_Rotation_Algorithms\Outputs\GurobiLogs\gurobi_log-output-31_ton-c250-BorbaRittModel-NoExtraConstraint-2.log"
Gurobi Optimizer version 11.0.1 build v11.0.1rc0 (win64 - Windows 10.0 (19045.2))

CPU model: 11th Gen Intel(R) Core(TM) i7-1165G7 @ 2.80GHz, instruction set [SSE2|AVX|AVX2|AVX512]
Thread count: 4 physical cores, 8 logical processors, using up to 1 threads


Gurobi 11.0.1 (win64) logging started Mon Apr  1 21:36:04 2024

Set parameter LogFile to value "C:\Projetos\Job_Rotation_Algorithms\Outputs\GurobiLogs\gurobi_log-output-31_ton-c250-BorbaRittModel-NoExtraConstraint-2.log"
Gurobi Optimizer version 11.0.1 build v11.0.1rc0 (win64 - Windows 10.0 (19045.2))

CPU model: 11th Gen Intel(R) Core(TM) i7-1165G7 @ 2.80GHz, instruction set [SSE2|AVX|AVX2|AVX512]
Thread count: 4 physical cores, 8 logical processors, using up to 1 threads


Gurobi 11.0.1 (win64) logging started Thu Apr  4 23:33:35 2024

Set parameter LogFile to value "C:\Projetos\Job_Rotation_Algorithms\Outputs\GurobiLogs\gurobi_log-output-31_ton-c250-BorbaRittModel-NoExtraConstraint-2.log"
Gurobi Optimizer version 11.0.1 build v11.0.1rc0 (win64 - Windows 10.0 (19045.2))

CPU model: 11th Gen Intel(R) Core(TM) i7-1165G7 @ 2.80GHz, instruction set [SSE2|AVX|AVX2|AVX512]
Thread count: 4 physical cores, 8 logical processors, using up to 1 threads


Gurobi 11.0.1 (win64) logging started Sat Apr  6 13:03:13 2024

Set parameter LogFile to value "C:\Projetos\Job_Rotation_Algorithms\Outputs\GurobiLogs\gurobi_log-output-31_ton-c250-BorbaRittModel-NoExtraConstraint-2.log"
Gurobi Optimizer version 11.0.1 build v11.0.1rc0 (win64 - Windows 10.0 (19045.2))

CPU model: 11th Gen Intel(R) Core(TM) i7-1165G7 @ 2.80GHz, instruction set [SSE2|AVX|AVX2|AVX512]
Thread count: 4 physical cores, 8 logical processors, using up to 1 threads


Gurobi 11.0.1 (win64) logging started Sun Apr  7 02:36:03 2024

Set parameter LogFile to value "C:\Projetos\Job_Rotation_Algorithms\Outputs\GurobiLogs\gurobi_log-output-31_ton-c250-BorbaRittModel-NoExtraConstraint-2.log"
Gurobi Optimizer version 11.0.1 build v11.0.1rc0 (win64 - Windows 10.0 (19045.2))

CPU model: 11th Gen Intel(R) Core(TM) i7-1165G7 @ 2.80GHz, instruction set [SSE2|AVX|AVX2|AVX512]
Thread count: 4 physical cores, 8 logical processors, using up to 1 threads


Gurobi 11.0.1 (win64) logging started Sun Apr  7 09:48:59 2024

Set parameter LogFile to value "C:\Projetos\Job_Rotation_Algorithms\Outputs\GurobiLogs\gurobi_log-output-31_ton-c250-BorbaRittModel-NoExtraConstraint-2.log"
Gurobi Optimizer version 11.0.1 build v11.0.1rc0 (win64 - Windows 10.0 (19045.2))

CPU model: 11th Gen Intel(R) Core(TM) i7-1165G7 @ 2.80GHz, instruction set [SSE2|AVX|AVX2|AVX512]
Thread count: 4 physical cores, 8 logical processors, using up to 1 threads


Gurobi 11.0.1 (win64) logging started Tue Apr  9 08:07:36 2024

Set parameter LogFile to value "C:\Projetos\Job_Rotation_Algorithms\Outputs\GurobiLogs\gurobi_log-output-31_ton-c250-BorbaRittModel-NoExtraConstraint-2.log"
Gurobi Optimizer version 11.0.1 build v11.0.1rc0 (win64 - Windows 10.0 (19045.2))

CPU model: 11th Gen Intel(R) Core(TM) i7-1165G7 @ 2.80GHz, instruction set [SSE2|AVX|AVX2|AVX512]
Thread count: 4 physical cores, 8 logical processors, using up to 1 threads


Gurobi 11.0.1 (win64) logging started Wed Apr 10 17:37:16 2024

Set parameter LogFile to value "C:\Projetos\Job_Rotation_Algorithms\Outputs\GurobiLogs\gurobi_log-output-31_ton-c250-BorbaRittModel-NoExtraConstraint-2.log"
Gurobi Optimizer version 11.0.1 build v11.0.1rc0 (win64 - Windows 10.0 (19045.2))

CPU model: 11th Gen Intel(R) Core(TM) i7-1165G7 @ 2.80GHz, instruction set [SSE2|AVX|AVX2|AVX512]
Thread count: 4 physical cores, 8 logical processors, using up to 1 threads


Gurobi 11.0.1 (win64) logging started Thu Apr 11 01:42:34 2024

Set parameter LogFile to value "C:\Projetos\Job_Rotation_Algorithms\Outputs\GurobiLogs\gurobi_log-output-31_ton-c250-BorbaRittModel-NoExtraConstraint-2.log"
Gurobi Optimizer version 11.0.1 build v11.0.1rc0 (win64 - Windows 10.0 (19045.2))

CPU model: 11th Gen Intel(R) Core(TM) i7-1165G7 @ 2.80GHz, instruction set [SSE2|AVX|AVX2|AVX512]
Thread count: 4 physical cores, 8 logical processors, using up to 1 threads


Gurobi 11.0.1 (win64) logging started Sun Apr 21 02:59:08 2024

Set parameter LogFile to value "C:\Projetos\Job_Rotation_Algorithms\Outputs\GurobiLogs\gurobi_log-output-31_ton-c250-BorbaRittModel-NoExtraConstraint-2.log"
Gurobi Optimizer version 11.0.1 build v11.0.1rc0 (win64 - Windows 10.0 (19045.2))

CPU model: 11th Gen Intel(R) Core(TM) i7-1165G7 @ 2.80GHz, instruction set [SSE2|AVX|AVX2|AVX512]
Thread count: 4 physical cores, 8 logical processors, using up to 1 threads


Gurobi 11.0.1 (win64) logging started Fri Apr 26 07:41:09 2024

Set parameter LogFile to value "C:\Projetos\Job_Rotation_Algorithms\Outputs\GurobiLogs\gurobi_log-output-31_ton-c250-BorbaRittModel-NoExtraConstraint-2.log"
Gurobi Optimizer version 11.0.1 build v11.0.1rc0 (win64 - Windows 10.0 (19045.2))

CPU model: 11th Gen Intel(R) Core(TM) i7-1165G7 @ 2.80GHz, instruction set [SSE2|AVX|AVX2|AVX512]
Thread count: 4 physical cores, 8 logical processors, using up to 1 threads


Gurobi 11.0.1 (win64) logging started Sat Apr 27 04:32:40 2024

Set parameter LogFile to value "C:\Projetos\Job_Rotation_Algorithms\Outputs\GurobiLogs\gurobi_log-output-31_ton-c250-BorbaRittModel-NoExtraConstraint-2.log"
Gurobi Optimizer version 11.0.1 build v11.0.1rc0 (win64 - Windows 10.0 (19045.2))

CPU model: 11th Gen Intel(R) Core(TM) i7-1165G7 @ 2.80GHz, instruction set [SSE2|AVX|AVX2|AVX512]
Thread count: 4 physical cores, 8 logical processors, using up to 1 threads


Gurobi 11.0.1 (win64) logging started Sat Apr 27 14:50:38 2024

Set parameter LogFile to value "C:\Projetos\Job_Rotation_Algorithms\Outputs\GurobiLogs\gurobi_log-output-31_ton-c250-BorbaRittModel-NoExtraConstraint-2.log"
Gurobi Optimizer version 11.0.1 build v11.0.1rc0 (win64 - Windows 10.0 (19045.2))

CPU model: 11th Gen Intel(R) Core(TM) i7-1165G7 @ 2.80GHz, instruction set [SSE2|AVX|AVX2|AVX512]
Thread count: 4 physical cores, 8 logical processors, using up to 1 threads


Gurobi 11.0.1 (win64) logging started Mon Apr 29 17:28:42 2024

Set parameter LogFile to value "C:\Projetos\Job_Rotation_Algorithms\Outputs\GurobiLogs\gurobi_log-output-31_ton-c250-BorbaRittModel-NoExtraConstraint-2.log"
Gurobi Optimizer version 11.0.1 build v11.0.1rc0 (win64 - Windows 10.0 (19045.2))

CPU model: 11th Gen Intel(R) Core(TM) i7-1165G7 @ 2.80GHz, instruction set [SSE2|AVX|AVX2|AVX512]
Thread count: 4 physical cores, 8 logical processors, using up to 1 threads

WLS license 901038 - registered to Bitka Analytics
Optimize a model with 14187 rows, 2024 columns and 44466 nonzeros
Model fingerprint: 0x122986ed
Variable types: 2 continuous, 2022 integer (2022 binary)
Coefficient statistics:
  Matrix range     [1e+00, 3e+02]
  Objective range  [1e+00, 1e+00]
  Bounds range     [1e+00, 5e+02]
  RHS range        [1e+00, 5e+02]
Presolve removed 1 rows and 1 columns
Presolve time: 0.05s
Presolved: 14186 rows, 2023 columns, 44464 nonzeros
Variable types: 0 continuous, 2023 integer (2022 binary)
Root relaxation presolved: 14186 rows, 2023 columns, 44464 nonzeros


Root relaxation: objective 1.400000e+02, 2860 iterations, 0.34 seconds (0.38 work units)

    Nodes    |    Current Node    |     Objective Bounds      |     Work
 Expl Unexpl |  Obj  Depth IntInf | Incumbent    BestBd   Gap | It/Node Time

     0     0  140.00000    0  255          -  140.00000      -     -    1s
     0     0  140.00000    0  512          -  140.00000      -     -    1s
     0     0  140.00000    0  457          -  140.00000      -     -    1s
     0     0  140.00000    0  288          -  140.00000      -     -    3s
     0     0  140.00000    0  367          -  140.00000      -     -    3s
     0     0  140.00000    0  366          -  140.00000      -     -    4s
     0     0  140.00000    0  366          -  140.00000      -     -    4s
     0     0  140.00000    0  339          -  140.00000      -     -    5s
     0     0  140.00000    0  340          -  140.00000      -     -    5s
     0     0  140.00000    0  340          -  140.00000      -     -    6s
     0     0  140.00000    0  423          -  140.00000      -     -    6s
     0     0  140.00000    0  477          -  140.00000      -     -    7s
     0     0  140.00000    0  477          -  140.00000      -     -    8s
     0     2  140.00000    0  347          -  140.00000      -     -   11s
   170   123  140.00000   11  339          -  140.00000      -   175   15s
   538   381  140.00000   53  282          -  140.00000      -   123   20s
   686   432  140.00000   75  399          -  140.00000      -   121   25s
   690   435  140.00000   10  417          -  140.00000      -   120   30s
   697   439  140.00000   44  350          -  140.00000      -   119   35s
   705   445  140.00000   27  304          -  140.00000      -   118   40s
   728   462  140.00000   22  294          -  140.00000      -  92.6   45s
   804   501  140.00000   58  299          -  140.00000      -   119   50s
   942   549  140.00000   55  322          -  140.00000      -   132   55s
  1168   653  140.00000   61  405          -  140.00000      -   132   60s
  1353   707  140.00000   41  225          -  140.00000      -   140   65s
  1554   783  140.00000   85  284          -  140.00000      -   145   70s
  1683   823 infeasible   89               -  140.00000      -   160   75s
  1796   864  140.00000   69  307          -  140.00000      -   169   80s
  1801   867  140.00000   74  292          -  140.00000      -   170   85s
  1980   925  140.00000   43  259          -  140.00000      -   172   90s
  2172  1026  140.00000   56  375          -  140.00000      -   171   95s
  2391  1177 infeasible   69               -  140.00000      -   173  100s
  2562  1272 infeasible   64               -  140.00000      -   179  105s
  2682  1356  139.85847   66  385          -  140.00000      -   188  110s
  2854  1454  140.00000   75  262          -  140.00000      -   190  115s
  3077  1565  140.00000   59  370          -  140.00000      -   189  120s
  3232  1654  140.00000   41  267          -  140.00000      -   193  125s
  3431  1811  140.00000   62  326          -  140.00000      -   195  130s
  3610  1916  140.00000   51  286          -  140.00000      -   198  135s
  3836  2048  140.00000   48  256          -  140.00000      -   199  140s
  4073  2179  140.00000   57  315          -  140.00000      -   197  145s
  4267  2327  140.00000   61  318          -  140.00000      -   198  150s
  4490  2478  140.00000   71  292          -  140.00000      -   197  155s
  4682  2614  140.00000   91  241          -  140.00000      -   200  160s
  4828  2698 infeasible   86               -  140.00000      -   203  165s
  4932  2780  140.00000   51  254          -  140.00000      -   201  173s
  4976  2806  140.00000   47  188          -  140.00000      -   202  175s
  5111  2899 infeasible   49               -  140.00000      -   201  180s
  5260  2974  140.00000   88  379          -  140.00000      -   204  185s
  5443  3077  140.00000   61  287          -  140.00000      -   205  190s
  5672  3196 infeasible   68               -  140.00000      -   205  195s
  5884  3342  140.00000   48  274          -  140.00000      -   205  200s
  6101  3505  140.00000   60  297          -  140.00000      -   205  205s
  6348  3652  140.00000   71  244          -  140.00000      -   205  210s
  6509  3685 infeasible   62               -  140.00000      -   208  215s
  6667  3745 infeasible   65               -  140.00000      -   210  220s
  6822  3830 infeasible   66               -  140.00000      -   212  225s
  7015  3931  140.00000   55  336          -  140.00000      -   213  230s
  7261  4043  140.00000   51  223          -  140.00000      -   212  235s
  7410  4136  139.91667   95  292          -  140.00000      -   214  240s
  7550  4208  140.00000   66  285          -  140.00000      -   214  245s
  7656  4272  140.00000   62  288          -  140.00000      -   216  250s
  7733  4333 infeasible   84               -  140.00000      -   219  255s
  7941  4423  140.00000   53  362          -  140.00000      -   218  260s
  8112  4516 infeasible   71               -  140.00000      -   219  265s
  8113  4517  140.00000   69  333          -  140.00000      -   220  271s
  8213  4573 infeasible   78               -  140.00000      -   221  275s
  8382  4646 infeasible   76               -  140.00000      -   223  280s
  8498  4696 infeasible   66               -  140.00000      -   225  285s
  8671  4777 infeasible   51               -  140.00000      -   226  290s
  8826  4880  140.00000   55  371          -  140.00000      -   227  295s
  8997  4913 infeasible   66               -  140.00000      -   228  300s
  9189  5005 infeasible   84               -  140.00000      -   228  305s
  9363  5117  140.00000   82  282          -  140.00000      -   229  310s
  9527  5199  140.00000   61  192          -  140.00000      -   230  315s
  9710  5296 infeasible  102               -  140.00000      -   230  320s
  9889  5387  140.00000   90  220          -  140.00000      -   231  325s
 10051  5455 infeasible   84               -  140.00000      -   233  330s
 10202  5530 infeasible   91               -  140.00000      -   233  408s
 10246  5548  140.00000   75  209          -  140.00000      -   234  410s
 10430  5562 infeasible   91               -  140.00000      -   235  415s
 10602  5620  140.00000   71  170          -  140.00000      -   236  420s
 10826  5714 infeasible   89               -  140.00000      -   237  425s
 10995  5757 infeasible   84               -  140.00000      -   238  430s
 11153  5795  140.00000   80  232          -  140.00000      -   240  435s
 11290  5854  140.00000   85  204          -  140.00000      -   243  440s
 11428  5866 infeasible   93               -  140.00000      -   244  445s
 11597  5927 infeasible   89               -  140.00000      -   245  450s
 11706  5962  140.00000   70  253          -  140.00000      -   246  455s
 11849  6045 infeasible   85               -  140.00000      -   247  460s
 11859  6049  140.00000   88  268          -  140.00000      -   247  466s
 11926  6070  140.00000   86  238          -  140.00000      -   248  470s
 12058  6118  140.00000   81  248          -  140.00000      -   249  475s
 12175  6153  140.00000   82  220          -  140.00000      -   251  480s
 12297  6157  140.00000   89  237          -  140.00000      -   253  485s
 12449  6215  140.00000   77  188          -  140.00000      -   254  490s
 12632  6274  140.00000   90  246          -  140.00000      -   255  495s
 12815  6325  140.00000   86  296          -  140.00000      -   255  500s
 12990  6341  140.00000   85  241          -  140.00000      -   256  505s
 13123  6358 infeasible   85               -  140.00000      -   258  510s
 13335  6388  140.00000   85  182          -  140.00000      -   258  515s
 13516  6407  140.00000   82  226          -  140.00000      -   258  520s
 13657  6438 infeasible   85               -  140.00000      -   259  525s
 13824  6451  140.00000   80  208          -  140.00000      -   260  530s
 14009  6490  140.00000   92  272          -  140.00000      -   261  535s
 14196  6533  140.00000   82  210          -  140.00000      -   261  540s
 14390  6541  140.00000   84  239          -  140.00000      -   262  545s
 14513  6580  140.00000   96  251          -  140.00000      -   263  550s
 14684  6617  140.00000   86  225          -  140.00000      -   264  555s
 14806  6619 infeasible   76               -  140.00000      -   266  560s
 14964  6635  140.00000   86  255          -  140.00000      -   267  565s
 15116  6667 infeasible   89               -  140.00000      -   268  570s
 15190  6695  140.00000   93  241          -  140.00000      -   269  578s
 15224  6697 infeasible   88               -  140.00000      -   269  580s
 15329  6696 infeasible   92               -  140.00000      -   271  585s
 15451  6724  140.00000   87  238          -  140.00000      -   273  590s
 15608  6751  140.00000   79  196          -  140.00000      -   273  595s
 15743  6794 infeasible   92               -  140.00000      -   275  600s
 15866  6831  140.00000   88  241          -  140.00000      -   276  605s
 15971  6834 infeasible   87               -  140.00000      -   277  610s
 16097  6852  140.00000   93  234          -  140.00000      -   279  615s
 16207  6862  140.00000   91  275          -  140.00000      -   280  620s
 16348  6901  140.00000   88  229          -  140.00000      -   281  625s
 16485  6920 infeasible   97               -  140.00000      -   282  630s
 16585  6928 infeasible   85               -  140.00000      -   284  635s
 16722  6939 infeasible   93               -  140.00000      -   285  640s
 16902  6977  140.00000   79  256          -  140.00000      -   286  645s
 17098  7045 infeasible   85               -  140.00000      -   286  650s
 17255  7108  140.00000   82  213          -  140.00000      -   286  655s
 17363  7148  140.00000   88  256          -  140.00000      -   288  660s
 17461  7164  140.00000   85  321          -  140.00000      -   290  665s
 17573  7178 infeasible   79               -  140.00000      -   291  670s
 17743  7206 infeasible   95               -  140.00000      -   292  675s
 17896  7241 infeasible   92               -  140.00000      -   293  680s
 18084  7281  140.00000   75  198          -  140.00000      -   293  685s
 18281  7312  140.00000   84  232          -  140.00000      -   293  690s
 18325  7318  140.00000   86  231          -  140.00000      -   293  696s
 18465  7324 infeasible   84               -  140.00000      -   293  700s
 18657  7366 infeasible   88               -  140.00000      -   294  705s
 18780  7371  140.00000   83  201          -  140.00000      -   295  710s
 18921  7388 infeasible   80               -  140.00000      -   296  715s
 19093  7438 infeasible   80               -  140.00000      -   297  720s
 19232  7455 infeasible   89               -  140.00000      -   298  725s
 19352  7495  140.00000   76  291          -  140.00000      -   299  730s
 19532  7553  140.00000   77  200          -  140.00000      -   299  735s
 19654  7583  140.00000   92  258          -  140.00000      -   301  740s
 19791  7622 infeasible   93               -  140.00000      -   301  745s
 19910  7643 infeasible   91               -  140.00000      -   302  750s
 20056  7669 infeasible   74               -  140.00000      -   303  755s
 20197  7710  140.00000   73  262          -  140.00000      -   304  760s
 20367  7758  140.00000   91  215          -  140.00000      -   304  765s
 20509  7760  140.00000   87  200          -  140.00000      -   305  770s
 20638  7787  140.00000   85  207          -  140.00000      -   306  775s
 20736  7801  140.00000   84  217          -  140.00000      -   307  780s
 20868  7837  140.00000   79  209          -  140.00000      -   307  785s
 20993  7882  140.00000   74  207          -  140.00000      -   308  790s
 21001  7890  140.00000   80  246          -  140.00000      -   308  795s
 21124  7945 infeasible   81               -  140.00000      -   308  800s
 21272  7979 infeasible   95               -  140.00000      -   308  805s
 21397  7996  140.00000   82  197          -  140.00000      -   309  810s
 21526  8001 infeasible   88               -  140.00000      -   310  815s
 21703  8014  140.00000   85  279          -  140.00000      -   310  820s
 21862  8089 infeasible   85               -  140.00000      -   310  825s
 22022  8131  140.00000   82  205          -  140.00000      -   310  830s
 22226  8201 infeasible   77               -  140.00000      -   310  835s
 22411  8242  140.00000   83  253          -  140.00000      -   310  840s
 22573  8266 infeasible   85               -  140.00000      -   310  845s
 22734  8291 infeasible   96               -  140.00000      -   311  850s
 22902  8313  140.00000   81  190          -  140.00000      -   311  855s
 23103  8402 infeasible   95               -  140.00000      -   311  860s
 23242  8451 infeasible   96               -  140.00000      -   312  865s
 23443  8500  140.00000   91  207          -  140.00000      -   311  870s
 23625  8558  140.00000   78  200          -  140.00000      -   311  875s
 23799  8624 infeasible   75               -  140.00000      -   312  880s
 23923  8664 infeasible   79               -  140.00000      -   312  885s
 24066  8677 infeasible   85               -  140.00000      -   312  890s
 24230  8707  140.00000   81  200          -  140.00000      -   312  895s
 24371  8756 infeasible   81               -  140.00000      -   313  900s
 24489  8778  140.00000   82  251          -  140.00000      -   313  909s
 24514  8785 infeasible   81               -  140.00000      -   313  910s
 24617  8806  140.00000   80  248          -  140.00000      -   314  915s
 24765  8834  140.00000   81  192          -  140.00000      -   314  920s
 24870  8857 infeasible   89               -  140.00000      -   315  925s
 25001  8868 infeasible   89               -  140.00000      -   316  930s
 25135  8906 infeasible   81               -  140.00000      -   317  935s
 25303  8932  140.00000   73  181          -  140.00000      -   317  940s
 25449  8974 infeasible   83               -  140.00000      -   317  945s
 25588  9003 infeasible   84               -  140.00000      -   318  950s
 25767  9028 infeasible   85               -  140.00000      -   318  955s
 25940  9109  140.00000   85  249          -  140.00000      -   318  960s
 26126  9149 infeasible   74               -  140.00000      -   318  965s
 26287  9188  140.00000   82  202          -  140.00000      -   318  970s
 26401  9200  140.00000   73  147          -  140.00000      -   318  975s
 26533  9232 infeasible   75               -  140.00000      -   319  980s
 26695  9260 infeasible   82               -  140.00000      -   319  985s
 26898  9281  140.00000   82  210          -  140.00000      -   319  990s
 27038  9297  140.00000   80  248          -  140.00000      -   319  995s
 27161  9302 infeasible   78               -  140.00000      -   319 1000s
 27306  9317 infeasible   72               -  140.00000      -   320 1005s
 27411  9330  140.00000   74  190          -  140.00000      -   320 1015s
 27577  9374  140.00000   76  207          -  140.00000      -   320 1020s
 27743  9424  140.00000   78  254          -  140.00000      -   320 1025s
 27890  9479 infeasible   77               -  140.00000      -   320 1030s
 28060  9507  140.00000   74  226          -  140.00000      -   320 1035s
 28206  9541 infeasible   81               -  140.00000      -   320 1040s
 28405  9578  140.00000   72  285          -  140.00000      -   320 1045s
 28567  9662  140.00000   83  175          -  140.00000      -   320 1050s
 28725  9710  140.00000   87  229          -  140.00000      -   320 1055s
 28891  9738 infeasible   90               -  140.00000      -   319 1060s
 29002  9739 infeasible   87               -  140.00000      -   320 1065s
 29121  9734  140.00000   72  175          -  140.00000      -   320 1070s
 29255  9760 infeasible   84               -  140.00000      -   321 1075s
 29373  9774  140.00000   86  293          -  140.00000      -   321 1080s
 29478  9805 infeasible   83               -  140.00000      -   322 1085s
 29642  9895  140.00000   74  249          -  140.00000      -   322 1090s
 29765  9930 infeasible   88               -  140.00000      -   322 1095s
 29867  9940 infeasible   85               -  140.00000      -   323 1100s
 29979  9942  140.00000   79  191          -  140.00000      -   323 1105s
 30109  9968 infeasible   90               -  140.00000      -   324 1110s
 30268 10011 infeasible   81               -  140.00000      -   324 1115s
 30394 10045 infeasible   76               -  140.00000      -   324 1120s
 30530 10059 infeasible   69               -  140.00000      -   325 1125s
 30693 10142 infeasible   92               -  140.00000      -   325 1130s
 30852 10193  140.00000   79  223          -  140.00000      -   325 1135s
 30930 10215  140.00000   91  237          -  140.00000      -   325 1146s
 31028 10229 infeasible   85               -  140.00000      -   325 1150s
 31141 10272 infeasible   81               -  140.00000      -   325 1155s
 31287 10306  140.00000   81  211          -  140.00000      -   325 1160s
 31450 10351 infeasible   80               -  140.00000      -   325 1165s
 31630 10405 infeasible   88               -  140.00000      -   325 1170s
 31772 10423 infeasible   87               -  140.00000      -   325 1175s
 31899 10458 infeasible   82               -  140.00000      -   326 1180s
 32025 10480 infeasible   85               -  140.00000      -   326 1185s
 32142 10497 infeasible   87               -  140.00000      -   326 1190s
 32317 10514  140.00000   82  183          -  140.00000      -   326 1195s
 32447 10534 infeasible   95               -  140.00000      -   327 1200s
 32591 10572 infeasible   79               -  140.00000      -   327 1205s
 32707 10568  140.00000   82  190          -  140.00000      -   328 1210s
 32874 10629  140.00000   70  238          -  140.00000      -   328 1215s
 33039 10670 infeasible   83               -  140.00000      -   328 1220s
 33178 10673  140.00000   84  254          -  140.00000      -   328 1225s
 33326 10699  140.00000   78  246          -  140.00000      -   328 1230s
 33462 10723 infeasible   85               -  140.00000      -   329 1235s
 33591 10778  140.00000   80  241          -  140.00000      -   329 1240s
 33740 10823  140.00000   85  270          -  140.00000      -   329 1245s
 33894 10877 infeasible   84               -  140.00000      -   330 1250s
 34051 10928 infeasible   85               -  140.00000      -   330 1255s
 34189 10914  140.00000   77  224          -  140.00000      -   330 1260s
 34340 10925 infeasible   86               -  140.00000      -   330 1265s
 34457 10950  140.00000   88  204          -  140.00000      -   331 1270s
 34577 10940 infeasible   85               -  140.00000      -   331 1275s
 34701 10966 infeasible   93               -  140.00000      -   332 1280s
 34722 10963  139.00000   91  232          -  140.00000      -   332 1288s
 34763 10972 infeasible   78               -  140.00000      -   332 1290s
 34912 10993  140.00000   72  293          -  140.00000      -   332 1295s
 35043 10996 infeasible   89               -  140.00000      -   332 1300s
 35177 10996  140.00000   85  228          -  140.00000      -   333 1305s
 35320 10977 infeasible   83               -  140.00000      -   333 1310s
 35467 10992 infeasible   85               -  140.00000      -   333 1315s
 35638 10999 infeasible   76               -  140.00000      -   333 1320s
 35775 10994  140.00000   89  258          -  140.00000      -   334 1325s
 35948 11003  140.00000   90  282          -  140.00000      -   334 1330s
 36081 10994 infeasible   88               -  140.00000      -   334 1335s
 36222 10987 infeasible   97               -  140.00000      -   334 1340s
 36316 10997  140.00000   88  256          -  140.00000      -   335 1345s
 36420 10995  140.00000   80  312          -  140.00000      -   335 1350s
 36520 11001  140.00000   87  247          -  140.00000      -   336 1355s
 36652 11008 infeasible   87               -  140.00000      -   336 1360s
 36802 11026  140.00000   86  211          -  140.00000      -   337 1365s
 36924 11024 infeasible   88               -  140.00000      -   337 1370s
 37047 11027 infeasible   91               -  140.00000      -   337 1375s
 37157 11015  140.00000   85  261          -  140.00000      -   338 1380s
 37275 11005  140.00000   89  254          -  140.00000      -   338 1385s
 37389 10991 infeasible   82               -  140.00000      -   339 1390s
 37507 10991 infeasible   93               -  140.00000      -   339 1395s
 37621 10997 infeasible   88               -  140.00000      -   339 1400s
 37736 10978 infeasible   81               -  140.00000      -   340 1405s
 37870 10980 infeasible   90               -  140.00000      -   340 1410s
 38012 10998 infeasible   91               -  140.00000      -   341 1415s
 38131 10999  140.00000   88  274          -  140.00000      -   341 1420s
 38212 10996 infeasible   84               -  140.00000      -   342 1425s
 38324 10996  140.00000   84  208          -  140.00000      -   342 1437s
 38390 10992  140.00000   85  331          -  140.00000      -   342 1440s
 38554 11020  140.00000   86  269          -  140.00000      -   342 1445s
 38697 11009 infeasible   84               -  140.00000      -   342 1450s
 38860 11008 infeasible   79               -  140.00000      -   342 1455s
 39001 11013 infeasible   86               -  140.00000      -   342 1460s
 39161 11039 infeasible   88               -  140.00000      -   342 1465s
 39277 11045 infeasible   85               -  140.00000      -   343 1470s
 39452 11070 infeasible   86               -  140.00000      -   343 1475s
 39615 11087  140.00000   85  292          -  140.00000      -   343 1480s
 39746 11086 infeasible   84               -  140.00000      -   343 1485s
 39863 11095 infeasible   82               -  140.00000      -   343 1490s
 39976 11104  140.00000   86  240          -  140.00000      -   343 1495s
 40144 11126 infeasible   92               -  140.00000      -   343 1500s
 40290 11116 infeasible   84               -  140.00000      -   343 1505s
 40472 11138  140.00000   84  243          -  140.00000      -   343 1510s
 40614 11146  140.00000   79  194          -  140.00000      -   343 1515s
 40768 11158 infeasible   82               -  140.00000      -   344 1520s
 40903 11171  140.00000   84  278          -  140.00000      -   344 1525s
 41043 11189  140.00000   87  267          -  140.00000      -   344 1530s
 41197 11187  140.00000   79  233          -  140.00000      -   344 1535s
 41324 11186  140.00000   86  281          -  140.00000      -   345 1540s
 41449 11171 infeasible   91               -  140.00000      -   345 1545s
 41566 11156 infeasible   80               -  140.00000      -   346 1550s
 41697 11157 infeasible   85               -  140.00000      -   346 1555s
 41822 11158 infeasible   88               -  140.00000      -   347 1560s
 41969 11173 infeasible   92               -  140.00000      -   347 1565s
 42141 11199  140.00000   87  184          -  140.00000      -   347 1570s
 42169 11195  140.00000   82  176          -  140.00000      -   347 1576s
 42265 11195  140.00000   83  205          -  140.00000      -   347 1580s
 42392 11204 infeasible   81               -  140.00000      -   347 1585s
 42519 11213 infeasible   82               -  140.00000      -   348 1590s
 42629 11217  140.00000   81  232          -  140.00000      -   348 1595s
 42757 11225  140.00000   78  186          -  140.00000      -   349 1600s
 42878 11256  140.00000   92  297          -  140.00000      -   349 1605s
 42980 11262  140.00000   87  292          -  140.00000      -   349 1610s
 43085 11261 infeasible   90               -  140.00000      -   350 1615s
 43196 11262  140.00000   75  204          -  140.00000      -   351 1620s
 43341 11301  140.00000   79  269          -  140.00000      -   351 1625s
 43491 11325 infeasible   97               -  140.00000      -   351 1630s
 43618 11356  140.00000   85  249          -  140.00000      -   351 1635s
 43740 11360 infeasible   89               -  140.00000      -   352 1640s
 43850 11366  140.00000   85  175          -  140.00000      -   352 1645s
 43980 11360  140.00000   74  225          -  140.00000      -   353 1650s
 44106 11386  140.00000   77  197          -  140.00000      -   353 1655s
 44250 11418 infeasible   84               -  140.00000      -   353 1660s
 44416 11436 infeasible   94               -  140.00000      -   353 1665s
 44564 11442  140.00000   89  144          -  140.00000      -   354 1670s
 44709 11451  140.00000   89  222          -  140.00000      -   354 1680s
 44891 11481 infeasible   86               -  140.00000      -   354 1685s
 45077 11485  140.00000   79  172          -  140.00000      -   354 1690s
*45248 11490              92     138.0000000  140.00000  1.45%   353 1694s
 45287 11486 infeasible   78       138.00000  140.00000  1.45%   353 1695s
 45465 11497  140.00000   82  172  138.00000  140.00000  1.45%   353 1700s
 45640 11504  139.97727   85  309  138.00000  140.00000  1.45%   353 1705s
 45800 11509 infeasible   89       138.00000  140.00000  1.45%   353 1710s
 46009 11507  140.00000   88  140  138.00000  140.00000  1.45%   352 1715s
 46262 11514  140.00000   88  212  138.00000  140.00000  1.45%   351 1720s
 46396 11527  139.00000   87  260  138.00000  140.00000  1.45%   352 1725s
 46516 11573  140.00000   79  266  138.00000  140.00000  1.45%   352 1730s
 46614 11578  139.96203   77  267  138.00000  140.00000  1.45%   352 1738s
 46642 11579  139.96203   74  272  138.00000  140.00000  1.45%   352 1740s
 46699 11600  140.00000   75  239  138.00000  140.00000  1.45%   352 1747s
 46754 11614  140.00000   74  200  138.00000  140.00000  1.45%   352 1750s
 46830 11645  140.00000   82  286  138.00000  140.00000  1.45%   352 1755s
H46875     1                     140.0000000  140.00000  0.00%   352 1756s

Cutting planes:
  Zero half: 3
  RLT: 5

Explored 46876 nodes (16611380 simplex iterations) in 1756.90 seconds (2025.26 work units)
Thread count was 1 (of 8 available processors)

Solution count 2: 140 138 

Optimal solution found (tolerance 1.00e-03)
Best objective 1.400000000000e+02, best bound 1.400000000000e+02, gap 0.0000%
